16 16
10
3 3 10 0
3 4 0 12
3 5 10 3
3 6 13 0
3 7 7 0
3 8 10 8
3 10 13 6
3 12 0 0
4 7 3 0
7 9 3 7
% time elapsed: 0.13 s
% time elapsed: 0.13 s
%%%mzn-stat: initTime=0.00026
%%%mzn-stat: solveTime=0.046335
%%%mzn-stat: solutions=33
%%%mzn-stat: variables=21
%%%mzn-stat: propagators=15
%%%mzn-stat: propagations=86506
%%%mzn-stat: nodes=13982
%%%mzn-stat: failures=6614
%%%mzn-stat: restarts=48
%%%mzn-stat: peakDepth=30
%%%mzn-stat-end
